Optimal - objective value -11.00000000
      1 x_1                      1                       0
      4 x_4                      1                       0
      8 x_8                      1                     1.5
      9 x_9                      1                     3.5
     14 x_14                     1                     1.5
     17 x_17                     1                       2
     23 x_23                     1                    -0.5
     58 x_58                     1                       0
     62 x_62                     1                       0
     85 x_85                     1                     1.5
     93 x_93                     1                       0
